c CNF formula generated by generate_input.py
c Number of variables: 50
c Number of clauses: 50
c Clause length: random between 1 and 4
p cnf 50 50
6 0
11 -3 8 0
-14 42 -13 -11 0
33 26 17 16 0
-48 0
41 -38 0
-42 -39 -50 46 0
-12 38 14 0
-26 38 29 0
23 38 -43 0
-4 -45 6 -11 0
14 0
-3 -31 -47 0
-35 26 0
-25 -15 0
21 19 38 0
17 0
-1 -24 0
48 47 8 0
-25 28 37 39 0
12 18 -50 -45 0
18 -19 -10 -16 0
-6 -32 45 21 0
-37 -8 0
-9 0
2 0
-38 0
-20 -35 32 0
-31 0
2 9 13 3 0
45 -36 0
42 46 23 27 0
29 -45 32 0
-43 -8 0
-36 0
-19 28 15 -46 0
-42 0
-10 -49 -22 7 0
-25 45 26 0
-3 -45 0
-2 -5 0
-33 11 5 48 0
26 49 -4 0
-5 24 0
-6 -47 0
19 -9 6 0
7 -15 0
3 -47 0
-6 -17 0
41 0
